c WMC file for PBN ISCAS/c880_distill_ISCAS/c880_miter written by probABC
p cnf 710 1848
95 -1 -2 0
-95 1 0
-95 2 0
96 -3 -8 0
-96 3 0
-96 8 0
97 -10 -11 0
-97 10 0
-97 11 0
98 -12 -13 0
-98 12 0
-98 13 0
99 -97 -98 0
-99 97 0
-99 98 0
100 -95 -96 0
-100 95 0
-100 96 0
101 -99 -100 0
-101 99 0
-101 100 0
102 74 101 0
-102 -74 0
-102 -101 0
103 -74 -101 0
-103 74 0
-103 101 0
104 -14 102 0
-104 14 0
-104 -102 0
105 103 -104 0
-105 -103 0
-105 104 0
106 -43 -105 0
-106 43 0
-106 105 0
107 -91 106 0
-107 91 0
-107 -106 0
108 -4 -34 0
-108 4 0
-108 34 0
109 -1 -5 0
-109 1 0
-109 5 0
110 -63 109 0
-110 63 0
-110 -109 0
111 63 -109 0
-111 -63 0
-111 109 0
112 110 111 0
-112 -110 0
-112 -111 0
113 -9 112 0
-113 9 0
-113 -112 0
114 -6 -16 0
-114 6 0
-114 16 0
115 -17 -114 0
-115 17 0
-115 114 0
116 -4 60 0
-116 4 0
-116 -60 0
117 -115 -116 0
-117 115 0
-117 116 0
118 -113 -117 0
-118 113 0
-118 117 0
119 -11 -40 0
-119 11 0
-119 40 0
120 -113 119 0
-120 113 0
-120 -119 0
121 -70 120 0
-121 70 0
-121 -120 0
122 70 -120 0
-122 -70 0
-122 120 0
123 121 122 0
-123 -121 0
-123 -122 0
124 -10 123 0
-124 10 0
-124 -123 0
125 -37 -124 0
-125 37 0
-125 124 0
126 118 125 0
-126 -118 0
-126 -125 0
127 -84 126 0
-127 84 0
-127 -126 0
128 84 -126 0
-128 -84 0
-128 126 0
129 127 128 0
-129 -127 0
-129 -128 0
130 -8 -11 0
-130 8 0
-130 11 0
131 -16 -130 0
-131 16 0
-131 130 0
132 -4 -9 0
-132 4 0
-132 9 0
133 -95 -132 0
-133 95 0
-133 132 0
134 131 -133 0
-134 -131 0
-134 133 0
135 -4 8 0
-135 4 0
-135 -8 0
136 4 -8 0
-136 -4 0
-136 8 0
137 135 136 0
-137 -135 0
-137 -136 0
138 -71 137 0
-138 71 0
-138 -137 0
139 71 -137 0
-139 -71 0
-139 137 0
140 -119 138 0
-140 119 0
-140 -138 0
141 139 -140 0
-141 -139 0
-141 140 0
142 -72 -141 0
-142 72 0
-142 141 0
143 72 141 0
-143 -72 0
-143 -141 0
144 -113 142 0
-144 113 0
-144 -142 0
145 143 -144 0
-145 -143 0
-145 144 0
146 134 145 0
-146 -134 0
-146 -145 0
147 -26 146 0
-147 26 0
-147 -146 0
148 108 147 0
-148 -108 0
-148 -147 0
149 129 -148 0
-149 -129 0
-149 148 0
150 -54 149 0
-150 54 0
-150 -149 0
151 91 -106 0
-151 -91 0
-151 106 0
152 107 151 0
-152 -107 0
-152 -151 0
153 150 -152 0
-153 -150 0
-153 152 0
154 -92 153 0
-154 92 0
-154 -153 0
155 92 -153 0
-155 -92 0
-155 153 0
156 154 155 0
-156 -154 0
-156 -155 0
157 43 -149 0
-157 -43 0
-157 149 0
158 -85 157 0
-158 85 0
-158 -157 0
159 85 -157 0
-159 -85 0
-159 157 0
160 158 159 0
-160 -158 0
-160 -159 0
161 -43 149 0
-161 43 0
-161 -149 0
162 -160 161 0
-162 160 0
-162 -161 0
163 -39 -124 0
-163 39 0
-163 124 0
164 -34 -38 0
-164 34 0
-164 38 0
165 -27 146 0
-165 27 0
-165 -146 0
166 164 165 0
-166 -164 0
-166 -165 0
167 86 166 0
-167 -86 0
-167 -166 0
168 -86 -166 0
-168 86 0
-168 166 0
169 118 163 0
-169 -118 0
-169 -163 0
170 167 -169 0
-170 -167 0
-170 169 0
171 168 -170 0
-171 -168 0
-171 170 0
172 -87 171 0
-172 87 0
-172 -171 0
173 87 -171 0
-173 -87 0
-173 171 0
174 172 173 0
-174 -172 0
-174 -173 0
175 -44 -174 0
-175 44 0
-175 174 0
176 44 174 0
-176 -44 0
-176 -174 0
177 -10 60 0
-177 10 0
-177 -60 0
178 -115 -177 0
-178 115 0
-178 177 0
179 -113 -178 0
-179 113 0
-179 178 0
180 -4 123 0
-180 4 0
-180 -123 0
181 -1 180 0
-181 1 0
-181 -180 0
182 -35 181 0
-182 35 0
-182 -181 0
183 -28 146 0
-183 28 0
-183 -146 0
184 182 183 0
-184 -182 0
-184 -183 0
185 -75 -184 0
-185 75 0
-185 184 0
186 75 184 0
-186 -75 0
-186 -184 0
187 179 185 0
-187 -179 0
-187 -185 0
188 186 -187 0
-188 -186 0
-188 187 0
189 -45 188 0
-189 45 0
-189 -188 0
190 45 -188 0
-190 -45 0
-190 188 0
191 -36 181 0
-191 36 0
-191 -181 0
192 -29 146 0
-192 29 0
-192 -146 0
193 191 192 0
-193 -191 0
-193 -192 0
194 -76 -193 0
-194 76 0
-194 193 0
195 76 193 0
-195 -76 0
-195 -193 0
196 179 194 0
-196 -179 0
-196 -194 0
197 195 -196 0
-197 -195 0
-197 196 0
198 -46 197 0
-198 46 0
-198 -197 0
199 46 -197 0
-199 -46 0
-199 197 0
200 -37 181 0
-200 37 0
-200 -181 0
201 -30 146 0
-201 30 0
-201 -146 0
202 179 200 0
-202 -179 0
-202 -200 0
203 201 -202 0
-203 -201 0
-203 202 0
204 -47 203 0
-204 47 0
-204 -203 0
205 -77 204 0
-205 77 0
-205 -204 0
206 77 -204 0
-206 -77 0
-206 204 0
207 205 206 0
-207 -205 0
-207 -206 0
208 47 -203 0
-208 -47 0
-208 203 0
209 -39 181 0
-209 39 0
-209 -181 0
210 -31 146 0
-210 31 0
-210 -146 0
211 179 209 0
-211 -179 0
-211 -209 0
212 210 -211 0
-212 -210 0
-212 211 0
213 -48 212 0
-213 48 0
-213 -212 0
214 208 -213 0
-214 -208 0
-214 213 0
215 -207 214 0
-215 207 0
-215 -214 0
216 199 215 0
-216 -199 0
-216 -215 0
217 48 -212 0
-217 -48 0
-217 212 0
218 -58 217 0
-218 58 0
-218 -217 0
219 208 -218 0
-219 -208 0
-219 218 0
220 199 -219 0
-220 -199 0
-220 219 0
221 -78 220 0
-221 78 0
-221 -220 0
222 78 -220 0
-222 -78 0
-222 220 0
223 198 216 0
-223 -198 0
-223 -216 0
224 221 222 0
-224 -221 0
-224 -222 0
225 -223 -224 0
-225 223 0
-225 224 0
226 190 225 0
-226 -190 0
-226 -225 0
227 189 226 0
-227 -189 0
-227 -226 0
228 176 227 0
-228 -176 0
-228 -227 0
229 175 228 0
-229 -175 0
-229 -228 0
230 -162 229 0
-230 162 0
-230 -229 0
231 162 -229 0
-231 -162 0
-231 229 0
232 -51 230 0
-232 51 0
-232 -230 0
233 231 -232 0
-233 -231 0
-233 232 0
234 -53 -161 0
-234 53 0
-234 161 0
235 -25 -50 0
-235 25 0
-235 50 0
236 -52 -162 0
-236 52 0
-236 162 0
237 234 235 0
-237 -234 0
-237 -235 0
238 236 -237 0
-238 -236 0
-238 237 0
239 233 -238 0
-239 -233 0
-239 238 0
240 -93 239 0
-240 93 0
-240 -239 0
241 93 -239 0
-241 -93 0
-241 239 0
242 240 241 0
-242 -240 0
-242 -241 0
243 156 242 0
-243 -156 0
-243 -242 0
244 -9 -109 0
-244 9 0
-244 109 0
245 -119 137 0
-245 119 0
-245 -137 0
246 -244 -245 0
-246 244 0
-246 245 0
247 134 246 0
-247 -134 0
-247 -246 0
248 -26 247 0
-248 26 0
-248 -247 0
249 119 -244 0
-249 -119 0
-249 244 0
250 -10 -249 0
-250 10 0
-250 249 0
251 -37 -250 0
-251 37 0
-251 250 0
252 -117 -244 0
-252 117 0
-252 244 0
253 108 252 0
-253 -108 0
-253 -252 0
254 251 -253 0
-254 -251 0
-254 253 0
255 248 -254 0
-255 -248 0
-255 254 0
256 -43 255 0
-256 43 0
-256 -255 0
257 43 -255 0
-257 -43 0
-257 255 0
258 256 257 0
-258 -256 0
-258 -257 0
259 -52 -258 0
-259 52 0
-259 258 0
260 -27 247 0
-260 27 0
-260 -247 0
261 -39 -250 0
-261 39 0
-261 250 0
262 164 252 0
-262 -164 0
-262 -252 0
263 261 -262 0
-263 -261 0
-263 262 0
264 260 -263 0
-264 -260 0
-264 263 0
265 -44 264 0
-265 44 0
-265 -264 0
266 44 -264 0
-266 -44 0
-266 264 0
267 -4 -249 0
-267 4 0
-267 249 0
268 -1 267 0
-268 1 0
-268 -267 0
269 -35 268 0
-269 35 0
-269 -268 0
270 -28 247 0
-270 28 0
-270 -247 0
271 -178 -244 0
-271 178 0
-271 244 0
272 269 271 0
-272 -269 0
-272 -271 0
273 270 -272 0
-273 -270 0
-273 272 0
274 -45 273 0
-274 45 0
-274 -273 0
275 45 -273 0
-275 -45 0
-275 273 0
276 -36 268 0
-276 36 0
-276 -268 0
277 -29 247 0
-277 29 0
-277 -247 0
278 271 276 0
-278 -271 0
-278 -276 0
279 277 -278 0
-279 -277 0
-279 278 0
280 -46 279 0
-280 46 0
-280 -279 0
281 46 -279 0
-281 -46 0
-281 279 0
282 -37 268 0
-282 37 0
-282 -268 0
283 -30 247 0
-283 30 0
-283 -247 0
284 271 282 0
-284 -271 0
-284 -282 0
285 283 -284 0
-285 -283 0
-285 284 0
286 -47 285 0
-286 47 0
-286 -285 0
287 47 -285 0
-287 -47 0
-287 285 0
288 -39 268 0
-288 39 0
-288 -268 0
289 -31 247 0
-289 31 0
-289 -247 0
290 271 288 0
-290 -271 0
-290 -288 0
291 289 -290 0
-291 -289 0
-291 290 0
292 -48 291 0
-292 48 0
-292 -291 0
293 48 -291 0
-293 -48 0
-293 291 0
294 -58 293 0
-294 58 0
-294 -293 0
295 292 294 0
-295 -292 0
-295 -294 0
296 287 295 0
-296 -287 0
-296 -295 0
297 286 296 0
-297 -286 0
-297 -296 0
298 281 297 0
-298 -281 0
-298 -297 0
299 280 298 0
-299 -280 0
-299 -298 0
300 275 299 0
-300 -275 0
-300 -299 0
301 274 300 0
-301 -274 0
-301 -300 0
302 266 301 0
-302 -266 0
-302 -301 0
303 265 302 0
-303 -265 0
-303 -302 0
304 -258 303 0
-304 258 0
-304 -303 0
305 258 -303 0
-305 -258 0
-305 303 0
306 -51 304 0
-306 51 0
-306 -304 0
307 305 -306 0
-307 -305 0
-307 306 0
308 -43 -53 0
-308 43 0
-308 53 0
309 54 308 0
-309 -54 0
-309 -308 0
310 255 309 0
-310 -255 0
-310 -309 0
311 -14 -101 0
-311 14 0
-311 101 0
312 -43 -311 0
-312 43 0
-312 311 0
313 235 312 0
-313 -235 0
-313 -312 0
314 310 -313 0
-314 -310 0
-314 313 0
315 259 -314 0
-315 -259 0
-315 314 0
316 307 -315 0
-316 -307 0
-316 315 0
317 243 316 0
-317 -243 0
-317 -316 0
318 -243 -316 0
-318 243 0
-318 316 0
319 317 318 0
-319 -317 0
-319 -318 0
320 -25 146 0
-320 25 0
-320 -146 0
321 -36 -124 0
-321 36 0
-321 124 0
322 -9 -34 0
-322 9 0
-322 34 0
323 118 322 0
-323 -118 0
-323 -322 0
324 321 -323 0
-324 -321 0
-324 323 0
325 320 -324 0
-325 -320 0
-325 324 0
326 42 -325 0
-326 -42 0
-326 325 0
327 -42 325 0
-327 42 0
-327 -325 0
328 326 327 0
-328 -326 0
-328 -327 0
329 -160 -175 0
-329 160 0
-329 175 0
330 161 329 0
-330 -161 0
-330 -329 0
331 -160 176 0
-331 160 0
-331 -176 0
332 227 -331 0
-332 -227 0
-332 331 0
333 -330 332 0
-333 330 0
-333 -332 0
334 90 -333 0
-334 -90 0
-334 333 0
335 -90 333 0
-335 90 0
-335 -333 0
336 334 335 0
-336 -334 0
-336 -335 0
337 328 336 0
-337 -328 0
-337 -336 0
338 -328 -336 0
-338 328 0
-338 336 0
339 -51 337 0
-339 51 0
-339 -337 0
340 338 -339 0
-340 -338 0
-340 339 0
341 -42 -105 0
-341 42 0
-341 105 0
342 -42 -53 0
-342 42 0
-342 53 0
343 54 342 0
-343 -54 0
-343 -342 0
344 325 343 0
-344 -325 0
-344 -343 0
345 -24 -50 0
-345 24 0
-345 50 0
346 -89 345 0
-346 89 0
-346 -345 0
347 89 -345 0
-347 -89 0
-347 345 0
348 -52 -328 0
-348 52 0
-348 328 0
349 346 347 0
-349 -346 0
-349 -347 0
350 341 -349 0
-350 -341 0
-350 349 0
351 344 -350 0
-351 -344 0
-351 350 0
352 348 -351 0
-352 -348 0
-352 351 0
353 340 -352 0
-353 -340 0
-353 352 0
354 -25 247 0
-354 25 0
-354 -247 0
355 -36 -250 0
-355 36 0
-355 250 0
356 252 322 0
-356 -252 0
-356 -322 0
357 355 -356 0
-357 -355 0
-357 356 0
358 354 -357 0
-358 -354 0
-358 357 0
359 -42 358 0
-359 42 0
-359 -358 0
360 42 -358 0
-360 -42 0
-360 358 0
361 359 360 0
-361 -359 0
-361 -360 0
362 -52 -361 0
-362 52 0
-362 361 0
363 257 303 0
-363 -257 0
-363 -303 0
364 256 363 0
-364 -256 0
-364 -363 0
365 -361 364 0
-365 361 0
-365 -364 0
366 361 -364 0
-366 -361 0
-366 364 0
367 -51 365 0
-367 51 0
-367 -365 0
368 366 -367 0
-368 -366 0
-368 367 0
369 343 358 0
-369 -343 0
-369 -358 0
370 -42 -311 0
-370 42 0
-370 311 0
371 345 370 0
-371 -345 0
-371 -370 0
372 369 -371 0
-372 -369 0
-372 371 0
373 362 -372 0
-373 -362 0
-373 372 0
374 368 -373 0
-374 -368 0
-374 373 0
375 353 374 0
-375 -353 0
-375 -374 0
376 -353 -374 0
-376 353 0
-376 374 0
377 375 376 0
-377 -375 0
-377 -376 0
378 -24 146 0
-378 24 0
-378 -146 0
379 -2 -34 0
-379 2 0
-379 34 0
380 -35 -124 0
-380 35 0
-380 124 0
381 118 379 0
-381 -118 0
-381 -379 0
382 380 -381 0
-382 -380 0
-382 381 0
383 378 -382 0
-383 -378 0
-383 382 0
384 -41 383 0
-384 41 0
-384 -383 0
385 41 -383 0
-385 -41 0
-385 383 0
386 384 385 0
-386 -384 0
-386 -385 0
387 -52 -386 0
-387 52 0
-387 386 0
388 326 -331 0
-388 -326 0
-388 331 0
389 227 -388 0
-389 -227 0
-389 388 0
390 326 330 0
-390 -326 0
-390 -330 0
391 327 390 0
-391 -327 0
-391 -390 0
392 389 -391 0
-392 -389 0
-392 391 0
393 386 -392 0
-393 -386 0
-393 392 0
394 -386 392 0
-394 386 0
-394 -392 0
395 -51 393 0
-395 51 0
-395 -393 0
396 394 -395 0
-396 -394 0
-396 395 0
397 -41 -53 0
-397 41 0
-397 53 0
398 54 397 0
-398 -54 0
-398 -397 0
399 383 398 0
-399 -383 0
-399 -398 0
400 -41 -105 0
-400 41 0
-400 105 0
401 -50 -60 0
-401 50 0
-401 60 0
402 400 401 0
-402 -400 0
-402 -401 0
403 399 -402 0
-403 -399 0
-403 402 0
404 387 -403 0
-404 -387 0
-404 403 0
405 396 -404 0
-405 -396 0
-405 404 0
406 -24 247 0
-406 24 0
-406 -247 0
407 -35 -250 0
-407 35 0
-407 250 0
408 252 379 0
-408 -252 0
-408 -379 0
409 407 -408 0
-409 -407 0
-409 408 0
410 406 -409 0
-410 -406 0
-410 409 0
411 -41 410 0
-411 41 0
-411 -410 0
412 41 -410 0
-412 -41 0
-412 410 0
413 411 412 0
-413 -411 0
-413 -412 0
414 -52 -413 0
-414 52 0
-414 413 0
415 360 364 0
-415 -360 0
-415 -364 0
416 359 415 0
-416 -359 0
-416 -415 0
417 -413 416 0
-417 413 0
-417 -416 0
418 413 -416 0
-418 -413 0
-418 416 0
419 -51 417 0
-419 51 0
-419 -417 0
420 418 -419 0
-420 -418 0
-420 419 0
421 398 410 0
-421 -398 0
-421 -410 0
422 -41 -311 0
-422 41 0
-422 311 0
423 401 422 0
-423 -401 0
-423 -422 0
424 421 -423 0
-424 -421 0
-424 423 0
425 414 -424 0
-425 -414 0
-425 424 0
426 420 -425 0
-426 -420 0
-426 425 0
427 405 426 0
-427 -405 0
-427 -426 0
428 -405 -426 0
-428 405 0
-428 426 0
429 427 428 0
-429 -427 0
-429 -428 0
430 -9 -63 0
-430 9 0
-430 63 0
431 -54 212 0
-431 54 0
-431 -212 0
432 213 -218 0
-432 -213 0
-432 218 0
433 213 217 0
-433 -213 0
-433 -217 0
434 58 433 0
-434 -58 0
-434 -433 0
435 73 -434 0
-435 -73 0
-435 434 0
436 -73 434 0
-436 73 0
-436 -434 0
437 -51 432 0
-437 51 0
-437 -432 0
438 435 -437 0
-438 -435 0
-438 437 0
439 436 -438 0
-439 -436 0
-439 438 0
440 -52 -433 0
-440 52 0
-440 433 0
441 -53 -213 0
-441 53 0
-441 213 0
442 -55 -59 0
-442 55 0
-442 59 0
443 -30 -50 0
-443 30 0
-443 50 0
444 442 443 0
-444 -442 0
-444 -443 0
445 -48 -105 0
-445 48 0
-445 105 0
446 -444 445 0
-446 444 0
-446 -445 0
447 431 -446 0
-447 -431 0
-447 446 0
448 441 -447 0
-448 -441 0
-448 447 0
449 440 -448 0
-449 -440 0
-449 448 0
450 439 -449 0
-450 -439 0
-450 449 0
451 -54 291 0
-451 54 0
-451 -291 0
452 292 -294 0
-452 -292 0
-452 294 0
453 292 293 0
-453 -292 0
-453 -293 0
454 58 453 0
-454 -58 0
-454 -453 0
455 -51 452 0
-455 51 0
-455 -452 0
456 454 -455 0
-456 -454 0
-456 455 0
457 -52 -453 0
-457 52 0
-457 453 0
458 -53 -292 0
-458 53 0
-458 292 0
459 -48 -311 0
-459 48 0
-459 311 0
460 -444 459 0
-460 444 0
-460 -459 0
461 451 -460 0
-461 -451 0
-461 460 0
462 458 -461 0
-462 -458 0
-462 461 0
463 457 -462 0
-463 -457 0
-463 462 0
464 456 -463 0
-464 -456 0
-464 463 0
465 450 -464 0
-465 -450 0
-465 464 0
466 -450 464 0
-466 450 0
-466 -464 0
467 -24 25 0
-467 24 0
-467 -25 0
468 24 -25 0
-468 -24 0
-468 25 0
469 467 468 0
-469 -467 0
-469 -468 0
470 -32 -469 0
-470 32 0
-470 469 0
471 32 469 0
-471 -32 0
-471 -469 0
472 470 471 0
-472 -470 0
-472 -471 0
473 -26 27 0
-473 26 0
-473 -27 0
474 26 -27 0
-474 -26 0
-474 27 0
475 473 474 0
-475 -473 0
-475 -474 0
476 -472 -475 0
-476 472 0
-476 475 0
477 472 475 0
-477 -472 0
-477 -475 0
478 476 477 0
-478 -476 0
-478 -477 0
479 -28 29 0
-479 28 0
-479 -29 0
480 28 -29 0
-480 -28 0
-480 29 0
481 479 480 0
-481 -479 0
-481 -480 0
482 -30 31 0
-482 30 0
-482 -31 0
483 30 -31 0
-483 -30 0
-483 31 0
484 482 483 0
-484 -482 0
-484 -483 0
485 -481 -484 0
-485 481 0
-485 484 0
486 481 484 0
-486 -481 0
-486 -484 0
487 485 486 0
-487 -485 0
-487 -486 0
488 66 487 0
-488 -66 0
-488 -487 0
489 -66 485 0
-489 66 0
-489 -485 0
490 488 489 0
-490 -488 0
-490 -489 0
491 -33 490 0
-491 33 0
-491 -490 0
492 33 -490 0
-492 -33 0
-492 490 0
493 491 492 0
-493 -491 0
-493 -492 0
494 -67 -493 0
-494 67 0
-494 493 0
495 -478 494 0
-495 478 0
-495 -494 0
496 67 493 0
-496 -67 0
-496 -493 0
497 495 -496 0
-497 -495 0
-497 496 0
498 -495 496 0
-498 495 0
-498 -496 0
499 497 498 0
-499 -497 0
-499 -498 0
500 33 487 0
-500 -33 0
-500 -487 0
501 -33 -487 0
-501 33 0
-501 487 0
502 500 501 0
-502 -500 0
-502 -501 0
503 -478 -502 0
-503 478 0
-503 502 0
504 478 502 0
-504 -478 0
-504 -502 0
505 503 504 0
-505 -503 0
-505 -504 0
506 -499 -505 0
-506 499 0
-506 505 0
507 499 505 0
-507 -499 0
-507 -505 0
508 8 17 0
-508 -8 0
-508 -17 0
509 -61 508 0
-509 61 0
-509 -508 0
510 -43 44 0
-510 43 0
-510 -44 0
511 43 -44 0
-511 -43 0
-511 44 0
512 510 511 0
-512 -510 0
-512 -511 0
513 -41 42 0
-513 41 0
-513 -42 0
514 41 -42 0
-514 -41 0
-514 42 0
515 513 514 0
-515 -513 0
-515 -514 0
516 -512 -515 0
-516 512 0
-516 515 0
517 -68 512 0
-517 68 0
-517 -512 0
518 -69 516 0
-518 69 0
-518 -516 0
519 517 -518 0
-519 -517 0
-519 518 0
520 -6 -7 0
-520 6 0
-520 7 0
521 109 -520 0
-521 -109 0
-521 520 0
522 61 521 0
-522 -61 0
-522 -521 0
523 -61 -521 0
-523 61 0
-523 521 0
524 63 109 0
-524 -63 0
-524 -109 0
525 -8 524 0
-525 8 0
-525 -524 0
526 522 -525 0
-526 -522 0
-526 525 0
527 523 -526 0
-527 -523 0
-527 526 0
528 -8 109 0
-528 8 0
-528 -109 0
529 -520 -528 0
-529 520 0
-529 528 0
530 -63 529 0
-530 63 0
-530 -529 0
531 527 530 0
-531 -527 0
-531 -530 0
532 -3 -4 0
-532 3 0
-532 4 0
533 531 -532 0
-533 -531 0
-533 532 0
534 -68 69 0
-534 68 0
-534 -69 0
535 385 392 0
-535 -385 0
-535 -392 0
536 384 535 0
-536 -384 0
-536 -535 0
537 412 416 0
-537 -412 0
-537 -416 0
538 411 537 0
-538 -411 0
-538 -537 0
539 536 538 0
-539 -536 0
-539 -538 0
540 -536 -538 0
-540 536 0
-540 538 0
541 539 540 0
-541 -539 0
-541 -540 0
542 -207 208 0
-542 207 0
-542 -208 0
543 -52 -542 0
-543 52 0
-543 542 0
544 213 218 0
-544 -213 0
-544 -218 0
545 -542 544 0
-545 542 0
-545 -544 0
546 542 -544 0
-546 -542 0
-546 544 0
547 -51 545 0
-547 51 0
-547 -545 0
548 546 -547 0
-548 -546 0
-548 547 0
549 -29 -50 0
-549 29 0
-549 50 0
550 -53 207 0
-550 53 0
-550 -207 0
551 549 550 0
-551 -549 0
-551 -550 0
552 543 -551 0
-552 -543 0
-552 551 0
553 548 -552 0
-553 -548 0
-553 552 0
554 -82 553 0
-554 82 0
-554 -553 0
555 82 -553 0
-555 -82 0
-555 553 0
556 554 555 0
-556 -554 0
-556 -555 0
557 -54 203 0
-557 54 0
-557 -203 0
558 -55 -57 0
-558 55 0
-558 57 0
559 -47 -105 0
-559 47 0
-559 105 0
560 558 559 0
-560 -558 0
-560 -559 0
561 557 -560 0
-561 -557 0
-561 560 0
562 556 -561 0
-562 -556 0
-562 561 0
563 -83 562 0
-563 83 0
-563 -562 0
564 83 -562 0
-564 -83 0
-564 562 0
565 563 564 0
-565 -563 0
-565 -564 0
566 286 287 0
-566 -286 0
-566 -287 0
567 -52 -566 0
-567 52 0
-567 566 0
568 295 -566 0
-568 -295 0
-568 566 0
569 -295 566 0
-569 295 0
-569 -566 0
570 -51 568 0
-570 51 0
-570 -568 0
571 569 -570 0
-571 -569 0
-571 570 0
572 -47 -311 0
-572 47 0
-572 311 0
573 -47 -53 0
-573 47 0
-573 53 0
574 54 573 0
-574 -54 0
-574 -573 0
575 285 574 0
-575 -285 0
-575 -574 0
576 549 558 0
-576 -549 0
-576 -558 0
577 572 -576 0
-577 -572 0
-577 576 0
578 575 -577 0
-578 -575 0
-578 577 0
579 567 -578 0
-579 -567 0
-579 578 0
580 571 -579 0
-580 -571 0
-580 579 0
581 -565 580 0
-581 565 0
-581 -580 0
582 565 -580 0
-582 -565 0
-582 580 0
583 581 582 0
-583 -581 0
-583 -582 0
584 175 176 0
-584 -175 0
-584 -176 0
585 -88 -584 0
-585 88 0
-585 584 0
586 88 584 0
-586 -88 0
-586 -584 0
587 585 586 0
-587 -585 0
-587 -586 0
588 227 -587 0
-588 -227 0
-588 587 0
589 -227 587 0
-589 227 0
-589 -587 0
590 -51 588 0
-590 51 0
-590 -588 0
591 589 -590 0
-591 -589 0
-591 590 0
592 -52 -587 0
-592 52 0
-592 587 0
593 -44 -53 0
-593 44 0
-593 53 0
594 54 593 0
-594 -54 0
-594 -593 0
595 -174 594 0
-595 174 0
-595 -594 0
596 -44 -105 0
-596 44 0
-596 105 0
597 -26 -50 0
-597 26 0
-597 50 0
598 596 597 0
-598 -596 0
-598 -597 0
599 595 -598 0
-599 -595 0
-599 598 0
600 592 -599 0
-600 -592 0
-600 599 0
601 591 -600 0
-601 -591 0
-601 600 0
602 265 266 0
-602 -265 0
-602 -266 0
603 -52 -602 0
-603 52 0
-603 602 0
604 301 -602 0
-604 -301 0
-604 602 0
605 -301 602 0
-605 301 0
-605 -602 0
606 -51 604 0
-606 51 0
-606 -604 0
607 605 -606 0
-607 -605 0
-607 606 0
608 264 594 0
-608 -264 0
-608 -594 0
609 -44 -311 0
-609 44 0
-609 311 0
610 597 609 0
-610 -597 0
-610 -609 0
611 608 -610 0
-611 -608 0
-611 610 0
612 603 -611 0
-612 -603 0
-612 611 0
613 607 -612 0
-613 -607 0
-613 612 0
614 601 613 0
-614 -601 0
-614 -613 0
615 -601 -613 0
-615 601 0
-615 613 0
616 614 615 0
-616 -614 0
-616 -615 0
617 -54 197 0
-617 54 0
-617 -197 0
618 198 199 0
-618 -198 0
-618 -199 0
619 80 219 0
-619 -80 0
-619 -219 0
620 -80 -219 0
-620 80 0
-620 219 0
621 619 620 0
-621 -619 0
-621 -620 0
622 -215 621 0
-622 215 0
-622 -621 0
623 -618 622 0
-623 618 0
-623 -622 0
624 618 -622 0
-624 -618 0
-624 622 0
625 -51 623 0
-625 51 0
-625 -623 0
626 624 -625 0
-626 -624 0
-626 625 0
627 -52 -618 0
-627 52 0
-627 618 0
628 -53 -198 0
-628 53 0
-628 198 0
629 -55 -56 0
-629 55 0
-629 56 0
630 -28 -50 0
-630 28 0
-630 50 0
631 629 630 0
-631 -629 0
-631 -630 0
632 -46 -105 0
-632 46 0
-632 105 0
633 -631 632 0
-633 631 0
-633 -632 0
634 617 -633 0
-634 -617 0
-634 633 0
635 628 -634 0
-635 -628 0
-635 634 0
636 627 -635 0
-636 -627 0
-636 635 0
637 626 -636 0
-637 -626 0
-637 636 0
638 -54 279 0
-638 54 0
-638 -279 0
639 280 281 0
-639 -280 0
-639 -281 0
640 297 -639 0
-640 -297 0
-640 639 0
641 -297 639 0
-641 297 0
-641 -639 0
642 -51 640 0
-642 51 0
-642 -640 0
643 641 -642 0
-643 -641 0
-643 642 0
644 -52 -639 0
-644 52 0
-644 639 0
645 -53 -280 0
-645 53 0
-645 280 0
646 -46 -311 0
-646 46 0
-646 311 0
647 -631 646 0
-647 631 0
-647 -646 0
648 638 -647 0
-648 -638 0
-648 647 0
649 645 -648 0
-649 -645 0
-649 648 0
650 644 -649 0
-650 -644 0
-650 649 0
651 643 -650 0
-651 -643 0
-651 650 0
652 -81 651 0
-652 81 0
-652 -651 0
653 81 -651 0
-653 -81 0
-653 651 0
654 652 653 0
-654 -652 0
-654 -653 0
655 637 -654 0
-655 -637 0
-655 654 0
656 -637 654 0
-656 637 0
-656 -654 0
657 655 656 0
-657 -655 0
-657 -656 0
658 189 190 0
-658 -189 0
-658 -190 0
659 -52 -658 0
-659 52 0
-659 658 0
660 -45 -53 0
-660 45 0
-660 53 0
661 54 660 0
-661 -54 0
-661 -660 0
662 188 661 0
-662 -188 0
-662 -661 0
663 -45 -105 0
-663 45 0
-663 105 0
664 -27 -50 0
-664 27 0
-664 50 0
665 225 -658 0
-665 -225 0
-665 658 0
666 -225 658 0
-666 225 0
-666 -658 0
667 -51 665 0
-667 51 0
-667 -665 0
668 666 -667 0
-668 -666 0
-668 667 0
669 664 668 0
-669 -664 0
-669 -668 0
670 79 669 0
-670 -79 0
-670 -669 0
671 -79 -669 0
-671 79 0
-671 669 0
672 662 663 0
-672 -662 0
-672 -663 0
673 659 -672 0
-673 -659 0
-673 672 0
674 670 -673 0
-674 -670 0
-674 673 0
675 671 -674 0
-675 -671 0
-675 674 0
676 274 275 0
-676 -274 0
-676 -275 0
677 -52 -676 0
-677 52 0
-677 676 0
678 299 -676 0
-678 -299 0
-678 676 0
679 -299 676 0
-679 299 0
-679 -676 0
680 -51 678 0
-680 51 0
-680 -678 0
681 679 -680 0
-681 -679 0
-681 680 0
682 273 661 0
-682 -273 0
-682 -661 0
683 -45 -311 0
-683 45 0
-683 311 0
684 664 683 0
-684 -664 0
-684 -683 0
685 682 -684 0
-685 -682 0
-685 684 0
686 677 -685 0
-686 -677 0
-686 685 0
687 681 -686 0
-687 -681 0
-687 686 0
688 675 687 0
-688 -675 0
-688 -687 0
689 -675 -687 0
-689 675 0
-689 687 0
690 688 689 0
-690 -688 0
-690 -689 0
691 62 64 0
-691 -62 0
-691 -64 0
692 65 -691 0
-692 -65 0
-692 691 0
693 430 534 0
-693 -430 0
-693 -534 0
694 -692 -693 0
-694 692 0
-694 693 0
695 509 -694 0
-695 -509 0
-695 694 0
696 519 -695 0
-696 -519 0
-696 695 0
697 533 -696 0
-697 -533 0
-697 696 0
698 506 -697 0
-698 -506 0
-698 697 0
699 507 -698 0
-699 -507 0
-699 698 0
700 465 -699 0
-700 -465 0
-700 699 0
701 466 -700 0
-701 -466 0
-701 700 0
702 657 -701 0
-702 -657 0
-702 701 0
703 541 -702 0
-703 -541 0
-703 702 0
704 583 616 0
-704 -583 0
-704 -616 0
705 -703 -704 0
-705 703 0
-705 704 0
706 690 -705 0
-706 -690 0
-706 705 0
707 429 -706 0
-707 -429 0
-707 706 0
708 377 -707 0
-708 -377 0
-708 707 0
709 319 -708 0
-709 -319 0
-709 708 0
94 709 0
-94 -709 0
94 0
w 1 0.500000
w 2 0.500000
w 3 0.500000
w 4 0.500000
w 5 0.500000
w 6 0.500000
w 7 0.500000
w 8 0.500000
w 9 0.500000
w 10 0.500000
w 11 0.500000
w 12 0.500000
w 13 0.500000
w 14 0.500000
w 15 0.500000
w 16 0.500000
w 17 0.500000
w 18 0.500000
w 19 0.500000
w 20 0.500000
w 21 0.500000
w 22 0.500000
w 23 0.500000
w 24 0.500000
w 25 0.500000
w 26 0.500000
w 27 0.500000
w 28 0.500000
w 29 0.500000
w 30 0.500000
w 31 0.500000
w 32 0.500000
w 33 0.500000
w 34 0.500000
w 35 0.500000
w 36 0.500000
w 37 0.500000
w 38 0.500000
w 39 0.500000
w 40 0.500000
w 41 0.500000
w 42 0.500000
w 43 0.500000
w 44 0.500000
w 45 0.500000
w 46 0.500000
w 47 0.500000
w 48 0.500000
w 49 0.500000
w 50 0.500000
w 51 0.500000
w 52 0.500000
w 53 0.500000
w 54 0.500000
w 55 0.500000
w 56 0.500000
w 57 0.500000
w 58 0.500000
w 59 0.500000
w 60 0.500000
w 61 0.125000
w 62 0.125000
w 63 0.125000
w 64 0.125000
w 65 0.125000
w 66 0.125000
w 67 0.125000
w 68 0.125000
w 69 0.125000
w 70 0.125000
w 71 0.125000
w 72 0.125000
w 73 0.125000
w 74 0.125000
w 75 0.125000
w 76 0.125000
w 77 0.125000
w 78 0.125000
w 79 0.125000
w 80 0.125000
w 81 0.125000
w 82 0.125000
w 83 0.125000
w 84 0.125000
w 85 0.125000
w 86 0.125000
w 87 0.125000
w 88 0.125000
w 89 0.125000
w 90 0.125000
w 91 0.125000
w 92 0.125000
w 93 0.125000
w 95 -1
w 96 -1
w 97 -1
w 98 -1
w 99 -1
w 100 -1
w 101 -1
w 102 -1
w 103 -1
w 104 -1
w 105 -1
w 106 -1
w 107 -1
w 108 -1
w 109 -1
w 110 -1
w 111 -1
w 112 -1
w 113 -1
w 114 -1
w 115 -1
w 116 -1
w 117 -1
w 118 -1
w 119 -1
w 120 -1
w 121 -1
w 122 -1
w 123 -1
w 124 -1
w 125 -1
w 126 -1
w 127 -1
w 128 -1
w 129 -1
w 130 -1
w 131 -1
w 132 -1
w 133 -1
w 134 -1
w 135 -1
w 136 -1
w 137 -1
w 138 -1
w 139 -1
w 140 -1
w 141 -1
w 142 -1
w 143 -1
w 144 -1
w 145 -1
w 146 -1
w 147 -1
w 148 -1
w 149 -1
w 150 -1
w 151 -1
w 152 -1
w 153 -1
w 154 -1
w 155 -1
w 156 -1
w 157 -1
w 158 -1
w 159 -1
w 160 -1
w 161 -1
w 162 -1
w 163 -1
w 164 -1
w 165 -1
w 166 -1
w 167 -1
w 168 -1
w 169 -1
w 170 -1
w 171 -1
w 172 -1
w 173 -1
w 174 -1
w 175 -1
w 176 -1
w 177 -1
w 178 -1
w 179 -1
w 180 -1
w 181 -1
w 182 -1
w 183 -1
w 184 -1
w 185 -1
w 186 -1
w 187 -1
w 188 -1
w 189 -1
w 190 -1
w 191 -1
w 192 -1
w 193 -1
w 194 -1
w 195 -1
w 196 -1
w 197 -1
w 198 -1
w 199 -1
w 200 -1
w 201 -1
w 202 -1
w 203 -1
w 204 -1
w 205 -1
w 206 -1
w 207 -1
w 208 -1
w 209 -1
w 210 -1
w 211 -1
w 212 -1
w 213 -1
w 214 -1
w 215 -1
w 216 -1
w 217 -1
w 218 -1
w 219 -1
w 220 -1
w 221 -1
w 222 -1
w 223 -1
w 224 -1
w 225 -1
w 226 -1
w 227 -1
w 228 -1
w 229 -1
w 230 -1
w 231 -1
w 232 -1
w 233 -1
w 234 -1
w 235 -1
w 236 -1
w 237 -1
w 238 -1
w 239 -1
w 240 -1
w 241 -1
w 242 -1
w 243 -1
w 244 -1
w 245 -1
w 246 -1
w 247 -1
w 248 -1
w 249 -1
w 250 -1
w 251 -1
w 252 -1
w 253 -1
w 254 -1
w 255 -1
w 256 -1
w 257 -1
w 258 -1
w 259 -1
w 260 -1
w 261 -1
w 262 -1
w 263 -1
w 264 -1
w 265 -1
w 266 -1
w 267 -1
w 268 -1
w 269 -1
w 270 -1
w 271 -1
w 272 -1
w 273 -1
w 274 -1
w 275 -1
w 276 -1
w 277 -1
w 278 -1
w 279 -1
w 280 -1
w 281 -1
w 282 -1
w 283 -1
w 284 -1
w 285 -1
w 286 -1
w 287 -1
w 288 -1
w 289 -1
w 290 -1
w 291 -1
w 292 -1
w 293 -1
w 294 -1
w 295 -1
w 296 -1
w 297 -1
w 298 -1
w 299 -1
w 300 -1
w 301 -1
w 302 -1
w 303 -1
w 304 -1
w 305 -1
w 306 -1
w 307 -1
w 308 -1
w 309 -1
w 310 -1
w 311 -1
w 312 -1
w 313 -1
w 314 -1
w 315 -1
w 316 -1
w 317 -1
w 318 -1
w 319 -1
w 320 -1
w 321 -1
w 322 -1
w 323 -1
w 324 -1
w 325 -1
w 326 -1
w 327 -1
w 328 -1
w 329 -1
w 330 -1
w 331 -1
w 332 -1
w 333 -1
w 334 -1
w 335 -1
w 336 -1
w 337 -1
w 338 -1
w 339 -1
w 340 -1
w 341 -1
w 342 -1
w 343 -1
w 344 -1
w 345 -1
w 346 -1
w 347 -1
w 348 -1
w 349 -1
w 350 -1
w 351 -1
w 352 -1
w 353 -1
w 354 -1
w 355 -1
w 356 -1
w 357 -1
w 358 -1
w 359 -1
w 360 -1
w 361 -1
w 362 -1
w 363 -1
w 364 -1
w 365 -1
w 366 -1
w 367 -1
w 368 -1
w 369 -1
w 370 -1
w 371 -1
w 372 -1
w 373 -1
w 374 -1
w 375 -1
w 376 -1
w 377 -1
w 378 -1
w 379 -1
w 380 -1
w 381 -1
w 382 -1
w 383 -1
w 384 -1
w 385 -1
w 386 -1
w 387 -1
w 388 -1
w 389 -1
w 390 -1
w 391 -1
w 392 -1
w 393 -1
w 394 -1
w 395 -1
w 396 -1
w 397 -1
w 398 -1
w 399 -1
w 400 -1
w 401 -1
w 402 -1
w 403 -1
w 404 -1
w 405 -1
w 406 -1
w 407 -1
w 408 -1
w 409 -1
w 410 -1
w 411 -1
w 412 -1
w 413 -1
w 414 -1
w 415 -1
w 416 -1
w 417 -1
w 418 -1
w 419 -1
w 420 -1
w 421 -1
w 422 -1
w 423 -1
w 424 -1
w 425 -1
w 426 -1
w 427 -1
w 428 -1
w 429 -1
w 430 -1
w 431 -1
w 432 -1
w 433 -1
w 434 -1
w 435 -1
w 436 -1
w 437 -1
w 438 -1
w 439 -1
w 440 -1
w 441 -1
w 442 -1
w 443 -1
w 444 -1
w 445 -1
w 446 -1
w 447 -1
w 448 -1
w 449 -1
w 450 -1
w 451 -1
w 452 -1
w 453 -1
w 454 -1
w 455 -1
w 456 -1
w 457 -1
w 458 -1
w 459 -1
w 460 -1
w 461 -1
w 462 -1
w 463 -1
w 464 -1
w 465 -1
w 466 -1
w 467 -1
w 468 -1
w 469 -1
w 470 -1
w 471 -1
w 472 -1
w 473 -1
w 474 -1
w 475 -1
w 476 -1
w 477 -1
w 478 -1
w 479 -1
w 480 -1
w 481 -1
w 482 -1
w 483 -1
w 484 -1
w 485 -1
w 486 -1
w 487 -1
w 488 -1
w 489 -1
w 490 -1
w 491 -1
w 492 -1
w 493 -1
w 494 -1
w 495 -1
w 496 -1
w 497 -1
w 498 -1
w 499 -1
w 500 -1
w 501 -1
w 502 -1
w 503 -1
w 504 -1
w 505 -1
w 506 -1
w 507 -1
w 508 -1
w 509 -1
w 510 -1
w 511 -1
w 512 -1
w 513 -1
w 514 -1
w 515 -1
w 516 -1
w 517 -1
w 518 -1
w 519 -1
w 520 -1
w 521 -1
w 522 -1
w 523 -1
w 524 -1
w 525 -1
w 526 -1
w 527 -1
w 528 -1
w 529 -1
w 530 -1
w 531 -1
w 532 -1
w 533 -1
w 534 -1
w 535 -1
w 536 -1
w 537 -1
w 538 -1
w 539 -1
w 540 -1
w 541 -1
w 542 -1
w 543 -1
w 544 -1
w 545 -1
w 546 -1
w 547 -1
w 548 -1
w 549 -1
w 550 -1
w 551 -1
w 552 -1
w 553 -1
w 554 -1
w 555 -1
w 556 -1
w 557 -1
w 558 -1
w 559 -1
w 560 -1
w 561 -1
w 562 -1
w 563 -1
w 564 -1
w 565 -1
w 566 -1
w 567 -1
w 568 -1
w 569 -1
w 570 -1
w 571 -1
w 572 -1
w 573 -1
w 574 -1
w 575 -1
w 576 -1
w 577 -1
w 578 -1
w 579 -1
w 580 -1
w 581 -1
w 582 -1
w 583 -1
w 584 -1
w 585 -1
w 586 -1
w 587 -1
w 588 -1
w 589 -1
w 590 -1
w 591 -1
w 592 -1
w 593 -1
w 594 -1
w 595 -1
w 596 -1
w 597 -1
w 598 -1
w 599 -1
w 600 -1
w 601 -1
w 602 -1
w 603 -1
w 604 -1
w 605 -1
w 606 -1
w 607 -1
w 608 -1
w 609 -1
w 610 -1
w 611 -1
w 612 -1
w 613 -1
w 614 -1
w 615 -1
w 616 -1
w 617 -1
w 618 -1
w 619 -1
w 620 -1
w 621 -1
w 622 -1
w 623 -1
w 624 -1
w 625 -1
w 626 -1
w 627 -1
w 628 -1
w 629 -1
w 630 -1
w 631 -1
w 632 -1
w 633 -1
w 634 -1
w 635 -1
w 636 -1
w 637 -1
w 638 -1
w 639 -1
w 640 -1
w 641 -1
w 642 -1
w 643 -1
w 644 -1
w 645 -1
w 646 -1
w 647 -1
w 648 -1
w 649 -1
w 650 -1
w 651 -1
w 652 -1
w 653 -1
w 654 -1
w 655 -1
w 656 -1
w 657 -1
w 658 -1
w 659 -1
w 660 -1
w 661 -1
w 662 -1
w 663 -1
w 664 -1
w 665 -1
w 666 -1
w 667 -1
w 668 -1
w 669 -1
w 670 -1
w 671 -1
w 672 -1
w 673 -1
w 674 -1
w 675 -1
w 676 -1
w 677 -1
w 678 -1
w 679 -1
w 680 -1
w 681 -1
w 682 -1
w 683 -1
w 684 -1
w 685 -1
w 686 -1
w 687 -1
w 688 -1
w 689 -1
w 690 -1
w 691 -1
w 692 -1
w 693 -1
w 694 -1
w 695 -1
w 696 -1
w 697 -1
w 698 -1
w 699 -1
w 700 -1
w 701 -1
w 702 -1
w 703 -1
w 704 -1
w 705 -1
w 706 -1
w 707 -1
w 708 -1
w 709 -1
w 94 -1
